3431.74 174931
48563.2 114923
179038 5589.56
98714.6 75936.2
140374 42890
60775.3 107593
169964 10292.3
131018 50634.2
29191.1 151478
16955.5 161256
151746 30480.3
162887 15897.2
118102 57756.4
143750 35025.9
40896.5 138511
168769 14878.9
88579.1 86113.2
88507.6 88896.9
103807 69607.9
159661 19563.8
100347 74230.7
65176.9 105194
83849.1 97006.2
46519.7 128729
152168 21328.5
166709 14879.3
100416 73516.8
18414.5 152076
114196 60452.9
108815 61754.3
124946 54825.1
59425.3 111166
9487.18 162072
60167.9 111000
5589.56 173344
112055 60879.4
48351.4 122400
169684 11993.2
59770.4 111046
31211.1 145076
105877 65562.8
87612.6 89823.2
45850.6 133911
57758.2 114157
149440 32581.3
131252 43653.1
58460 113832
57649.2 114216
74429.3 100853
58485.5 113420
58899.6 112713
58134.4 114127
133720 42918.8
45946.7 130685
